n_tipus_finques = 13;

maxPts = 6;

definicio_finques = array2d(1..13, 1..6, [
  (1,2), (1,3), (2,1), (2,2), (3,2), (0,0),%1
  (1,1), (2,1), (3,1), (4,1), (5,1), (0,0),%2
  (1,1), (2,1), (3,1), (4,1), (4,2), (0,0),%3
  (1,1), (2,1), (3,1), (3,2), (4,2), (0,0),%4
  (1,1), (1,2), (2,1), (2,2), (3,1), (0,0),%5
  (1,1), (1,2), (1,3), (2,2), (3,2), (0,0),%6
  (1,1), (1,3), (2,1), (2,2), (2,3), (0,0),%7
  (1,1), (2,1), (3,1), (3,2), (3,3), (0,0),%8
  (1,1), (1,2), (2,2), (3,2), (3,3), (0,0),%9
  (1,2), (2,1), (2,2), (2,3), (3,2), (0,0),%10
  (1,2), (2,1), (2,2), (3,2), (4,2), (0,0),%11
  (1,1), (1,2), (2,2), (3,2), (3,3), (0,0),%12
  (1,1), (1,2), (1,3), (2,1), (2,2), (2,3) %13
]);

height = 6;
width = 6;

parcs = {8,35}; % Posicio en format lineal

camins = {21, 22}; % Posicio en format lineal

n_finques = 4;
finques = [2, 3, 7, 8];

n_incompatibles = 0;
incompatibles = []; % indexos de l'array finques

finques_amb_parc = {};